c read Graph
c width = 80
c time = 315 ms
c width = 11
c time = 392 ms
c width = 10
c time = 573 ms
c width = 9
c time = 1562 ms
c width = 8
c time = 16352 ms
c width = 8
c time = 299888 ms
s td 457 9 511
b 1 186 192 436
b 2 65 435 436
b 3 82 434 435
b 4 216 433 434
b 5 241 244
b 6 134 244 245
b 7 58 245 246
b 8 159 246 247
b 9 149 247 248
b 10 24 248 249
b 11 50 249 250
b 12 7 250 251
b 13 14 251 252
b 14 15 252 253
b 15 193 253 254
b 16 43 254 255
b 17 49 255 256
b 18 77 256 257
b 19 127 257 258
b 20 239 258 259
b 21 110 259 260
b 22 132 260 261
b 23 153 261 262
b 24 158 262 263
b 25 21 263 264
b 26 199 264 265
b 27 83 437
b 28 1 331 332
b 29 322 331 332
b 30 2 451 452
b 31 450 451 452
b 32 3 468 469
b 33 464 468 469
b 34 12 479 480
b 35 478 479 480
b 36 108 425 504 505
b 37 195 337 338 440
b 38 236 275 486 487
b 39 23 275 276 294
b 40 182 294 295 306
b 41 217 306 307 308
b 42 213 308 309 310
b 43 185 310 311 317
b 44 51 317 318 321
b 45 194 321 322 332
b 46 100 333 334 337
b 47 337 338 343 440
b 48 152 343 344 345
b 49 63 345 346 349
b 50 189 349 350 361
b 51 136 361 362 363
b 52 54 363 364 367
b 53 22 367 368 369
b 54 198 369 370 375
b 55 13 375 376 382
b 56 123 383 384 385
b 57 47 385 386 391
b 58 101 391 392 397
b 59 98 397 398 400
b 60 97 400 401 405
b 61 93 405 406 409
b 62 218 409 410 424
b 63 97 440 441 445
b 64 152 445 446 449
b 65 63 449 450 452
b 66 93 452 453 455
b 67 182 455 456 458
b 68 189 458 459 463
b 69 218 463 464 472
b 70 54 474 475 476
b 71 22 477 478 482
b 72 198 482 483 484
b 73 185 484 485 486
b 74 103 488 489 490
b 75 51 490 491 499
b 76 194 502 503 504
b 77 425 504 505 506
b 78 98 508 509 511
b 79 53 100 332 333 511
b 80 100 332 333 337 511
b 81 13 23 317 337 375 382 400 424 487
b 82 23 294 317 337 375 400 424 486 487
b 83 294 310 317 337 375 400 424 484 486
b 84 294 310 337 367 375 400 424 477 484
b 85 367 369 375 477 482 484
b 86 22 367 369 477 482
b 87 198 369 375 482 484
b 88 294 308 310 337 367 400 424 476 477
b 89 294 308 337 363 367 400 424 474 476
b 90 54 363 367 474 476
b 91 182 217 294 308 337 363 400 424 474
b 92 182 217 294 306 308
b 93 182 217 337 363 400 424 473 474
b 94 182 337 361 363 400 424 472 473
b 95 182 337 361 400 409 424 463 472
b 96 182 337 349 361 400 409 458 463
b 97 182 337 349 400 409 455 458
b 98 213 308 310 476 477
b 99 185 310 317 484 486
b 100 23 275 294 486 487
b 101 13 23 317 337 382 400 424 487 488
b 102 23 317 337 382 400 424 425 488 490
b 103 23 317 337 382 400 425 490 504 507
b 104 317 332 337 382 391 400 490 504 507
b 105 332 337 391 400 507 511
b 106 391 397 400 507 508 511
b 107 98 397 400 508 511
b 108 101 391 397 507 508
b 109 317 321 332 382 391 490 499 504
b 110 321 332 382 391 499 502 504
b 111 194 321 332 502 504
b 112 382 385 391 499 501 502
b 113 23 425 504 506 507
b 114 103 424 425 488 490
b 115 51 317 321 490 499
b 116 337 349 400 405 409 452 455
b 117 97 337 349 400 405 452
b 118 97 337 345 349 449 452
b 119 63 345 349 449 452
b 120 97 337 343 345 445 449
b 121 152 343 345 445 449
b 122 97 337 343 440 445
b 123 93 405 409 452 455
b 124 218 409 424 463 472
b 125 47 385 391 501 502
b 126 382 383 385 499 500 501
b 127 137 382 383 499 500
b 128 123 383 385 500 501
b 129 189 349 361 458 463
b 130 136 361 363 472 473
b 131 196 510 511
b 132 509 510 511
b 133 125 509 510
b 134 178 505 506
b 135 57 503 504
b 136 201 498 499
b 137 491 498 499
b 138 146 497 498
b 139 491 497 498
b 140 31 496 497
b 141 491 496 497
b 142 41 495 496
b 143 491 495 496
b 144 78 494 495
b 145 491 494 495
b 146 104 493 494
b 147 491 493 494
b 148 96 492 493
b 149 491 492 493
b 150 48 491 492
b 151 99 489 490
b 152 39 485 486
b 153 243 483 484
b 154 72 481 482
b 155 478 481 482
b 156 71 480 481
b 157 478 480 481
b 158 144 478 479
b 159 17 475 476
b 160 62 471 472
b 161 464 471 472
b 162 106 470 471
b 163 464 470 471
b 164 88 469 470
b 165 464 469 470
b 166 177 467 468
b 167 464 467 468
b 168 229 466 467
b 169 464 466 467
b 170 155 465 466
b 171 464 465 466
b 172 35 464 465
b 173 27 462 463
b 174 459 462 463
b 175 38 461 462
b 176 459 461 462
b 177 64 460 461
b 178 459 460 461
b 179 11 459 460
b 180 160 457 458
b 181 456 457 458
b 182 166 456 457
b 183 154 454 455
b 184 453 454 455
b 185 5 453 454
b 186 126 450 451
b 187 91 448 449
b 188 446 448 449
b 189 168 447 448
b 190 446 447 448
b 191 44 446 447
b 192 180 444 445
b 193 441 444 445
b 194 32 443 444
b 195 441 443 444
b 196 234 442 443
b 197 441 442 443
b 198 150 441 442
b 199 34 423 424
b 200 410 423 424
b 201 122 422 423
b 202 410 422 423
b 203 114 421 422
b 204 410 421 422
b 205 25 420 421
b 206 410 420 421
b 207 187 419 420
b 208 410 419 420
b 209 209 418 419
b 210 410 418 419
b 211 223 417 418
b 212 410 417 418
b 213 204 416 417
b 214 410 416 417
b 215 174 415 416
b 216 410 415 416
b 217 131 414 415
b 218 410 414 415
b 219 222 413 414
b 220 410 413 414
b 221 228 412 413
b 222 410 412 413
b 223 212 411 412
b 224 410 411 412
b 225 73 410 411
b 226 206 408 409
b 227 406 408 409
b 228 89 407 408
b 229 406 407 408
b 230 105 406 407
b 231 210 404 405
b 232 401 404 405
b 233 81 403 404
b 234 401 403 404
b 235 52 402 403
b 236 401 402 403
b 237 16 401 402
b 238 129 399 400
b 239 398 399 400
b 240 207 398 399
b 241 215 396 397
b 242 392 396 397
b 243 176 395 396
b 244 392 395 396
b 245 37 394 395
b 246 392 394 395
b 247 68 393 394
b 248 392 393 394
b 249 184 392 393
b 250 237 390 391
b 251 386 390 391
b 252 79 389 390
b 253 386 389 390
b 254 70 388 389
b 255 386 388 389
b 256 197 387 388
b 257 386 387 388
b 258 102 386 387
b 259 225 384 385
b 260 219 381 382
b 261 376 381 382
b 262 75 380 381
b 263 376 380 381
b 264 76 379 380
b 265 376 379 380
b 266 145 378 379
b 267 376 378 379
b 268 69 377 378
b 269 376 377 378
b 270 87 376 377
b 271 124 374 375
b 272 370 374 375
b 273 60 373 374
b 274 370 373 374
b 275 59 372 373
b 276 370 372 373
b 277 231 371 372
b 278 370 371 372
b 279 203 370 371
b 280 170 368 369
b 281 56 366 367
b 282 364 366 367
b 283 6 365 366
b 284 364 365 366
b 285 171 364 365
b 286 128 362 363
b 287 67 360 361
b 288 350 360 361
b 289 84 359 360
b 290 350 359 360
b 291 175 358 359
b 292 350 358 359
b 293 20 357 358
b 294 350 357 358
b 295 90 356 357
b 296 350 356 357
b 297 142 355 356
b 298 350 355 356
b 299 112 354 355
b 300 350 354 355
b 301 120 353 354
b 302 350 353 354
b 303 200 352 353
b 304 350 352 353
b 305 221 351 352
b 306 350 351 352
b 307 188 350 351
b 308 80 348 349
b 309 346 348 349
b 310 10 347 348
b 311 346 347 348
b 312 151 346 347
b 313 55 344 345
b 314 148 342 343
b 315 338 342 343
b 316 113 341 342
b 317 338 341 342
b 318 109 340 341
b 319 338 340 341
b 320 227 339 340
b 321 338 339 340
b 322 95 338 339
b 323 167 336 337
b 324 334 336 337
b 325 117 335 336
b 326 334 335 336
b 327 121 334 335
b 328 162 330 331
b 329 322 330 331
b 330 226 329 330
b 331 322 329 330
b 332 42 328 329
b 333 322 328 329
b 334 61 327 328
b 335 322 327 328
b 336 36 326 327
b 337 322 326 327
b 338 169 325 326
b 339 322 325 326
b 340 224 324 325
b 341 322 324 325
b 342 9 323 324
b 343 322 323 324
b 344 45 322 323
b 345 233 320 321
b 346 318 320 321
b 347 28 319 320
b 348 318 319 320
b 349 211 318 319
b 350 8 316 317
b 351 311 316 317
b 352 232 315 316
b 353 311 315 316
b 354 147 314 315
b 355 311 314 315
b 356 156 313 314
b 357 311 313 314
b 358 86 312 313
b 359 311 312 313
b 360 140 311 312
b 361 115 309 310
b 362 183 307 308
b 363 18 305 306
b 364 295 305 306
b 365 66 304 305
b 366 295 304 305
b 367 111 303 304
b 368 295 303 304
b 369 179 302 303
b 370 295 302 303
b 371 235 301 302
b 372 295 301 302
b 373 157 300 301
b 374 295 300 301
b 375 30 299 300
b 376 295 299 300
b 377 118 298 299
b 378 295 298 299
b 379 202 297 298
b 380 295 297 298
b 381 92 296 297
b 382 295 296 297
b 383 138 295 296
b 384 165 293 294
b 385 276 293 294
b 386 133 292 293
b 387 276 292 293
b 388 130 291 292
b 389 276 291 292
b 390 143 290 291
b 391 276 290 291
b 392 116 289 290
b 393 276 289 290
b 394 74 288 289
b 395 276 288 289
b 396 181 287 288
b 397 276 287 288
b 398 214 286 287
b 399 276 286 287
b 400 33 285 286
b 401 276 285 286
b 402 191 284 285
b 403 276 284 285
b 404 107 283 284
b 405 276 283 284
b 406 205 282 283
b 407 276 282 283
b 408 208 281 282
b 409 276 281 282
b 410 119 280 281
b 411 276 280 281
b 412 141 279 280
b 413 276 279 280
b 414 242 278 279
b 415 276 278 279
b 416 190 277 278
b 417 276 277 278
b 418 4 276 277
b 419 29 274 275
b 420 236 274 275
b 421 26 273 274
b 422 236 273 274
b 423 94 272 273
b 424 236 272 273
b 425 173 271 272
b 426 236 271 272
b 427 139 270 271
b 428 236 270 271
b 429 220 269 270
b 430 236 269 270
b 431 172 268 269
b 432 236 268 269
b 433 19 267 268
b 434 236 267 268
b 435 161 266 267
b 436 236 266 267
b 437 236 265 266
b 438 164 439 440
b 439 195 439 440
b 440 195 438 439
b 441 238 438 439
b 442 195 437 438
b 443 40 431 432
b 444 108 431 432
b 445 108 432 433
b 446 46 430 431
b 447 108 430 431
b 448 108 429 430
b 449 240 429 430
b 450 85 428 429
b 451 108 428 429
b 452 108 427 428
b 453 230 427 428
b 454 108 426 427
b 455 163 426 427
b 456 108 425 426
b 457 135 425 426
1 2
2 3
3 4
4 445
5 6
6 7
7 8
8 9
9 10
10 11
11 12
12 13
13 14
14 15
15 16
16 17
17 18
18 19
19 20
20 21
21 22
22 23
23 24
24 25
25 26
26 437
27 442
28 29
29 329
29 45
30 31
31 186
31 65
32 33
33 167
33 165
34 35
35 158
35 157
36 456
36 77
37 439
37 47
38 420
38 100
39 385
39 100
40 364
40 92
41 362
41 92
42 361
42 98
43 351
43 99
44 346
44 115
45 111
46 324
46 80
47 315
47 122
48 313
48 121
49 309
49 119
50 288
50 129
51 286
51 130
52 282
52 90
53 280
53 86
54 272
54 87
55 261
55 81
56 259
56 128
57 251
57 125
58 242
58 108
59 239
59 107
60 232
60 117
61 227
61 123
62 200
62 124
63 193
63 122
64 188
64 121
65 119
66 184
66 123
67 181
67 97
68 174
68 129
69 161
69 124
70 159
70 90
71 155
71 86
72 153
72 87
73 152
73 99
74 151
74 114
75 137
75 115
76 135
76 111
77 134
77 113
78 132
78 107
79 80
80 105
81 82
81 101
82 83
82 100
83 84
83 99
84 85
84 88
85 86
85 87
88 89
88 98
89 90
89 91
91 92
91 93
93 94
94 130
94 95
95 124
95 96
96 129
96 97
97 116
101 102
102 103
102 114
103 104
103 113
104 105
104 109
105 106
106 107
106 108
109 115
109 110
110 111
110 112
112 126
112 125
116 123
116 117
117 118
118 119
118 120
120 122
120 121
126 127
126 128
131 132
132 133
136 137
137 139
138 139
139 141
140 141
141 143
142 143
143 145
144 145
145 147
146 147
147 149
148 149
149 150
154 155
155 157
156 157
160 161
161 163
162 163
163 165
164 165
166 167
167 169
168 169
169 171
170 171
171 172
173 174
174 176
175 176
176 178
177 178
178 179
180 181
181 182
183 184
184 185
187 188
188 190
189 190
190 191
192 193
193 195
194 195
195 197
196 197
197 198
199 200
200 202
201 202
202 204
203 204
204 206
205 206
206 208
207 208
208 210
209 210
210 212
211 212
212 214
213 214
214 216
215 216
216 218
217 218
218 220
219 220
220 222
221 222
222 224
223 224
224 225
226 227
227 229
228 229
229 230
231 232
232 234
233 234
234 236
235 236
236 237
238 239
239 240
241 242
242 244
243 244
244 246
245 246
246 248
247 248
248 249
250 251
251 253
252 253
253 255
254 255
255 257
256 257
257 258
260 261
261 263
262 263
263 265
264 265
265 267
266 267
267 269
268 269
269 270
271 272
272 274
273 274
274 276
275 276
276 278
277 278
278 279
281 282
282 284
283 284
284 285
287 288
288 290
289 290
290 292
291 292
292 294
293 294
294 296
295 296
296 298
297 298
298 300
299 300
300 302
301 302
302 304
303 304
304 306
305 306
306 307
308 309
309 311
310 311
311 312
314 315
315 317
316 317
317 319
318 319
319 321
320 321
321 322
323 324
324 326
325 326
326 327
328 329
329 331
330 331
331 333
332 333
333 335
334 335
335 337
336 337
337 339
338 339
339 341
340 341
341 343
342 343
343 344
345 346
346 348
347 348
348 349
350 351
351 353
352 353
353 355
354 355
355 357
356 357
357 359
358 359
359 360
363 364
364 366
365 366
366 368
367 368
368 370
369 370
370 372
371 372
372 374
373 374
374 376
375 376
376 378
377 378
378 380
379 380
380 382
381 382
382 383
384 385
385 387
386 387
387 389
388 389
389 391
390 391
391 393
392 393
393 395
394 395
395 397
396 397
397 399
398 399
399 401
400 401
401 403
402 403
403 405
404 405
405 407
406 407
407 409
408 409
409 411
410 411
411 413
412 413
413 415
414 415
415 417
416 417
417 418
419 420
420 422
421 422
422 424
423 424
424 426
425 426
426 428
427 428
428 430
429 430
430 432
431 432
432 434
433 434
434 436
435 436
436 437
438 439
439 440
440 442
440 441
443 444
444 447
444 445
446 447
447 448
448 451
448 449
450 451
451 452
452 454
452 453
454 456
454 455
456 457
